NAME : sim141.118659.tour
COMMENT : Length = 118659
COMMENT : Found by LKH [Keld Helsgaun] Sat Sep 15 23:31:48 2018
TYPE : TOUR
DIMENSION : 141
TOUR_SECTION
1
63
8
79
112
115
81
72
103
82
130
94
2
21
118
123
62
67
32
137
107
26
65
58
17
135
138
19
34
124
109
102
126
92
52
120
98
140
30
74
117
16
91
105
85
88
104
97
14
128
47
10
106
20
37
46
35
77
134
27
33
45
75
50
93
48
4
41
40
136
133
18
59
22
53
51
132
108
25
55
38
83
129
114
110
57
24
36
42
7
56
131
44
95
101
121
31
78
49
90
28
141
11
80
99
111
54
66
119
9
13
71
61
64
139
100
29
43
87
39
84
15
5
6
12
116
73
69
70
125
127
113
68
23
96
122
89
86
3
60
76
-1
EOF
